(set-logic QF_BV)
(declare-fun _substvar_513_ () (_ BitVec 16))
(declare-fun _substvar_478_ () (_ BitVec 8))
(declare-fun _substvar_544_ () (_ BitVec 32))
(declare-fun _substvar_166_ () (_ BitVec 8))
(declare-fun _substvar_514_ () (_ BitVec 16))
(declare-fun _substvar_402_ () (_ BitVec 8))
(declare-fun _substvar_474_ () (_ BitVec 16))
(declare-fun _substvar_422_ () (_ BitVec 32))
(declare-fun _substvar_743_ () Bool)
(declare-fun _substvar_405_ () (_ BitVec 16))
(declare-fun _substvar_529_ () (_ BitVec 16))
(declare-fun _substvar_494_ () (_ BitVec 32))
(assert (let ( (?v_15 ((_ zero_extend 24) _substvar_166_)) (?v_3 ((_ zero_extend 24) _substvar_478_)) (?v_1 ((_ zero_extend 24) _substvar_402_))) (let ((?v_0 (bvadd ?v_1 (_ bv1 32)))) (let ((?v_2 (bvadd (bvadd ?v_0 (_ bv1581277 32)) (_ bv0 32)))) (let ((?v_4 (bvadd ?v_2 (_ bv6 32)))) (let ((?v_6 (bvadd (bvadd ?v_4 (bvadd ?v_3 (_ bv1 32))) (_ bv2 32)))) (let ((?v_5 (bvadd ?v_6 ((_ zero_extend 16) _substvar_474_)))) (let ((?v_8 (bvadd ?v_5 (_ bv6 32)))) (let ((?v_9 (bvadd ?v_8 (bvadd _substvar_422_ (_ bv1 32))))) (let ((?v_11 (bvadd ?v_9 (_ bv2 32)))) (let ((?v_10 (bvadd ?v_11 (_ bv0 32)))) (let ((?v_14 (bvadd (bvadd ?v_10 (_ bv1 32)) ?v_15))) (let ((?v_19 (bvadd (bvadd ?v_14 (_ bv1 32)) (_ bv0 32)))) (let ((?v_24 (bvadd (bvadd ?v_19 (_ bv1 32)) (_ bv0 32)))) (let ((?v_25 (bvadd (bvadd ?v_24 (_ bv1 32)) (_ bv0 32)))) (and true true (= _substvar_474_ (bvor _substvar_513_ _substvar_514_)) (= _substvar_405_ _substvar_529_) (bvsle (_ bv1040 32) (bvsub ?v_25 (_ bv1581095 32))) true true (bvule _substvar_544_ (_ bv846 32)) true true true true true (= _substvar_422_ (_ bv1 32)) true (bvule (bvadd ?v_9 (_ bv3 32)) (_ bv1582102 32)) (bvule _substvar_494_ (_ bv1582102 32)) _substvar_743_ true true (bvule (bvadd ?v_14 (_ bv2 32)) (_ bv1582102 32)) true true true true true true true true true true true true))))))))))))))))
(check-sat)
(exit)
